30822.63,42.38,46.67
28239.38,46.25,50.94
31377.63,41.63,45.84
27698.5,47.16,51.93
29214.98,44.71,49.24
34232.45,38.16,42.02
28859.54,45.26,49.84
32073.7,40.73,44.85
29580.39,44.16,48.63
30291.94,43.12,47.49
30982.03,42.16,46.43
29851.83,43.76,48.19
32538.59,40.14,44.21
33405.52,39.1,43.06
28338.83,46.09,50.76
26499.6,49.29,54.28
29693.75,43.99,48.44
28852.11,45.27,49.86
31766.23,41.12,45.28
31349.6,41.67,45.88
